p cnf 1015 2278
-1 0
-1015 0
-1008 0
-1001 0
-994 0
-987 0
-980 0
-973 0
-966 0
-959 0
-952 0
-945 0
-938 0
-931 0
-924 0
-917 0
-910 0
-903 0
-896 0
-889 0
-882 0
-875 0
-868 0
-861 0
-854 0
-847 0
-840 0
-833 0
-826 0
-819 0
-812 0
-805 0
-798 0
-787 0
-788 0
-789 0
-790 0
-791 0
-783 0
-784 0
-2 0
-1014 0
-18 0
-19 0
-20 0
-21 0
35 0
52 0
-69 0
-70 0
86 0
103 0
120 0
-137 0
-776 0
-777 0
-154 0
-171 0
-1007 0
-172 0
-188 0
-189 0
205 0
206 0
-222 0
239 0
240 0
241 0
256 0
-273 0
-274 0
-290 0
-291 0
307 0
-769 0
-770 0
308 0
309 0
-1000 0
-324 0
341 0
342 0
343 0
344 0
345 0
358 0
359 0
360 0
361 0
362 0
363 0
364 0
375 0
376 0
392 0
393 0
-762 0
-763 0
394 0
-993 0
-409 0
-426 0
443 0
-460 0
-461 0
-462 0
477 0
478 0
479 0
480 0
-494 0
-495 0
511 0
512 0
513 0
-755 0
-756 0
528 0
-561 0
-986 0
-562 0
-563 0
-564 0
-565 0
-566 0
-567 0
-793 0
-794 0
-795 0
-796 0
-797 0
-748 0
-749 0
-574 0
-979 0
-581 0
-588 0
-595 0
-602 0
-609 0
-616 0
-741 0
-742 0
-623 0
-972 0
-630 0
-637 0
-644 0
-651 0
-658 0
-665 0
-734 0
-735 0
-672 0
-965 0
-679 0
-686 0
-693 0
-700 0
-707 0
-714 0
-727 0
-728 0
-721 0
-958 0
-720 0
-782 0
-1013 0
-775 0
-1006 0
-768 0
-999 0
-761 0
-992 0
-754 0
-985 0
-951 0
-569 0
-570 0
-571 0
-572 0
-573 0
-747 0
-801 0
-802 0
-803 0
-804 0
-713 0
-978 0
-740 0
-944 0
-971 0
-733 0
-964 0
-726 0
-706 0
-781 0
-1012 0
-774 0
-1005 0
-767 0
-998 0
-760 0
-991 0
-937 0
-957 0
-719 0
-753 0
-984 0
-950 0
-746 0
-577 0
-578 0
-579 0
-580 0
-712 0
-699 0
-809 0
-810 0
-930 0
-811 0
-977 0
-739 0
-943 0
-970 0
-732 0
-963 0
-692 0
-780 0
-1011 0
-773 0
-923 0
-1004 0
-766 0
-997 0
-705 0
-759 0
-990 0
-936 0
-752 0
-983 0
-725 0
-685 0
-745 0
-585 0
-698 0
-586 0
-916 0
-587 0
-929 0
-817 0
-818 0
-976 0
-738 0
-969 0
-678 0
-731 0
-671 0
-909 0
-956 0
-962 0
-691 0
-922 0
-724 0
-718 0
-949 0
-684 0
-902 0
-915 0
-593 0
-594 0
-825 0
-711 0
-664 0
-955 0
-704 0
-935 0
-717 0
-948 0
-677 0
-942 0
-670 0
-697 0
-895 0
-928 0
-901 0
-601 0
-710 0
-657 0
-941 0
-908 0
-690 0
-921 0
-703 0
-934 0
-888 0
-663 0
-683 0
-894 0
-696 0
-914 0
-927 0
-650 0
-676 0
-907 0
-689 0
-920 0
-656 0
-881 0
-887 0
-669 0
-682 0
-913 0
-900 0
-643 0
-675 0
-906 0
-649 0
-880 0
-662 0
-874 0
-893 0
-668 0
-899 0
-636 0
-655 0
-642 0
-886 0
-661 0
-873 0
-629 0
-867 0
-648 0
-892 0
-654 0
-641 0
-879 0
-885 0
-622 0
-860 0
-635 0
-628 0
-872 0
-866 0
-647 0
-640 0
-878 0
-615 0
-859 0
-853 0
-621 0
-634 0
-871 0
-865 0
-608 0
-846 0
-627 0
-614 0
-858 0
-852 0
-620 0
-633 0
-832 0
-864 0
-851 0
-839 0
-607 0
-845 0
-613 0
-626 0
-857 0
-619 0
-600 0
-838 0
-606 0
-850 0
-844 0
-824 0
-612 0
-843 0
-831 0
-599 0
-837 0
-605 0
-592 0
-830 0
-598 0
-836 0
-816 0
-823 0
-591 0
-829 0
-584 0
-822 0
-808 0
-815 0
960 -961 0
884 -653 660 0
-883 -652 -659 0
-723 730 0
-546 3 0
546 -3 0
890 -891 0
4 -3 0
-4 3 0
5 -4 0
-5 4 0
6 -5 0
-6 5 0
7 -6 0
-7 6 0
8 -7 0
-8 7 0
9 -8 0
-9 8 0
10 -9 0
-10 9 0
554 -10 11 0
-554 10 11 0
554 10 -11 0
-554 -10 -11 0
555 -11 12 0
-555 11 12 0
555 11 -12 0
-555 -11 -12 0
13 -12 0
-13 12 0
557 -13 14 0
-557 13 14 0
557 13 -14 0
-557 -13 -14 0
15 -14 0
-15 14 0
16 -15 0
-16 15 0
560 -16 17 0
-560 16 17 0
560 16 -17 0
-560 -16 -17 0
-891 -660 -667 0
891 660 -667 0
-708 715 940 0
-954 -723 0
-891 660 667 0
729 -961 0
-960 -729 961 0
-729 736 961 0
-548 22 0
548 -22 0
883 652 -659 0
549 -22 23 0
-549 22 23 0
549 22 -23 0
-549 -22 -23 0
24 -23 0
-24 23 0
551 -24 25 0
-551 24 25 0
551 24 -25 0
-551 -24 -25 0
552 -25 26 0
-552 25 26 0
552 25 -26 0
-552 -25 -26 0
27 -26 0
-27 26 0
554 -27 28 0
-554 27 28 0
554 27 -28 0
-554 -27 -28 0
555 -28 29 0
-555 28 29 0
555 28 -29 0
-555 -28 -29 0
30 -29 0
-30 29 0
31 -30 0
-31 30 0
32 -31 0
-32 31 0
559 -32 33 0
-559 32 33 0
559 32 -33 0
-559 -32 -33 0
34 -33 0
-34 33 0
-939 -708 940 0
545 36 0
708 -940 0
-779 786 0
-545 -36 0
37 -36 0
-37 36 0
547 -37 38 0
-547 37 38 0
547 37 -38 0
-547 -37 -38 0
39 -38 0
-39 38 0
549 -39 40 0
-549 39 40 0
549 39 -40 0
-549 -39 -40 0
41 -40 0
-41 40 0
551 -41 42 0
-551 41 42 0
551 41 -42 0
-551 -41 -42 0
552 -42 43 0
-552 42 43 0
552 42 -43 0
-552 -42 -43 0
44 -43 0
-44 43 0
45 -44 0
-45 44 0
46 -45 0
-46 45 0
556 -46 47 0
-556 46 47 0
556 46 -47 0
-556 -46 -47 0
48 -47 0
-48 47 0
49 -48 0
-49 48 0
50 -49 0
-50 49 0
51 -50 0
-51 50 0
-1010 -779 0
545 53 0
-883 652 659 0
666 -898 0
-545 -53 0
546 -53 54 0
-546 53 54 0
546 53 -54 0
-546 -53 -54 0
547 -54 55 0
-547 54 55 0
547 54 -55 0
-547 -54 -55 0
56 -55 0
-56 55 0
549 -56 57 0
-549 56 57 0
549 56 -57 0
-549 -56 -57 0
58 -57 0
-58 57 0
551 -58 59 0
-551 58 59 0
551 58 -59 0
-551 -58 -59 0
552 -59 60 0
-552 59 60 0
552 59 -60 0
-552 -59 -60 0
61 -60 0
-61 60 0
62 -61 0
-62 61 0
63 -62 0
-63 62 0
556 -63 64 0
-556 63 64 0
556 63 -64 0
-556 -63 -64 0
65 -64 0
-65 64 0
558 -65 66 0
-558 65 66 0
558 65 -66 0
-558 -65 -66 0
67 -66 0
-67 66 0
68 -67 0
-68 67 0
897 -898 0
891 -660 667 0
-778 785 1010 0
-1009 -778 1010 0
-546 71 0
546 -71 0
778 -1010 0
72 -71 0
-72 71 0
548 -72 73 0
-548 72 73 0
548 72 -73 0
-548 -72 -73 0
549 -73 74 0
-549 73 74 0
549 73 -74 0
-549 -73 -74 0
550 -74 75 0
-550 74 75 0
550 74 -75 0
-550 -74 -75 0
551 -75 76 0
-551 75 76 0
551 75 -76 0
-551 -75 -76 0
552 -76 77 0
-552 76 77 0
552 76 -77 0
-552 -76 -77 0
78 -77 0
-78 77 0
554 -78 79 0
-554 78 79 0
554 78 -79 0
-554 -78 -79 0
80 -79 0
-80 79 0
81 -80 0
-81 80 0
557 -81 82 0
-557 81 82 0
557 81 -82 0
-557 -81 -82 0
558 -82 83 0
-558 82 83 0
558 82 -83 0
-558 -82 -83 0
559 -83 84 0
-559 83 84 0
559 83 -84 0
-559 -83 -84 0
85 -84 0
-85 84 0
1009 -1010 0
545 87 0
-1010 -779 -786 0
1010 779 -786 0
-545 -87 0
546 -87 88 0
-546 87 88 0
546 87 -88 0
-546 -87 -88 0
89 -88 0
-89 88 0
90 -89 0
-90 89 0
549 -90 91 0
-549 90 91 0
549 90 -91 0
-549 -90 -91 0
92 -91 0
-92 91 0
551 -92 93 0
-551 92 93 0
551 92 -93 0
-551 -92 -93 0
94 -93 0
-94 93 0
95 -94 0
-95 94 0
96 -95 0
-96 95 0
97 -96 0
-97 96 0
98 -97 0
-98 97 0
557 -98 99 0
-557 98 99 0
557 98 -99 0
-557 -98 -99 0
558 -99 100 0
-558 99 100 0
558 99 -100 0
-558 -99 -100 0
559 -100 101 0
-559 100 101 0
559 100 -101 0
-559 -100 -101 0
560 -101 102 0
-560 101 102 0
560 101 -102 0
-560 -101 -102 0
-1010 779 786 0
545 104 0
1010 -779 786 0
-1009 -778 -785 0
-545 -104 0
105 -104 0
-105 104 0
547 -105 106 0
-547 105 106 0
547 105 -106 0
-547 -105 -106 0
548 -106 107 0
-548 106 107 0
548 106 -107 0
-548 -106 -107 0
549 -107 108 0
-549 107 108 0
549 107 -108 0
-549 -107 -108 0
109 -108 0
-109 108 0
551 -109 110 0
-551 109 110 0
551 109 -110 0
-551 -109 -110 0
111 -110 0
-111 110 0
553 -111 112 0
-553 111 112 0
553 111 -112 0
-553 -111 -112 0
113 -112 0
-113 112 0
555 -113 114 0
-555 113 114 0
555 113 -114 0
-555 -113 -114 0
556 -114 115 0
-556 114 115 0
556 114 -115 0
-556 -114 -115 0
116 -115 0
-116 115 0
558 -116 117 0
-558 116 117 0
558 116 -117 0
-558 -116 -117 0
559 -117 118 0
-559 117 118 0
559 117 -118 0
-559 -117 -118 0
560 -118 119 0
-560 118 119 0
560 118 -119 0
-560 -118 -119 0
1009 778 -785 0
545 121 0
-1009 778 785 0
1009 -778 785 0
-545 -121 0
122 -121 0
-122 121 0
123 -122 0
-123 122 0
548 -123 124 0
-548 123 124 0
548 123 -124 0
-548 -123 -124 0
549 -124 125 0
-549 124 125 0
549 124 -125 0
-549 -124 -125 0
126 -125 0
-126 125 0
551 -126 127 0
-551 126 127 0
551 126 -127 0
-551 -126 -127 0
128 -127 0
-128 127 0
129 -128 0
-129 128 0
130 -129 0
-130 129 0
131 -130 0
-131 130 0
132 -131 0
-132 131 0
133 -132 0
-133 132 0
558 -133 134 0
-558 133 134 0
558 133 -134 0
-558 -133 -134 0
559 -134 135 0
-559 134 135 0
559 134 -135 0
-559 -134 -135 0
560 -135 136 0
-560 135 136 0
560 135 -136 0
-560 -135 -136 0
-544 1009 0
544 -1009 0
-545 138 0
545 -138 0
-890 -659 -666 0
546 -138 139 0
-546 138 139 0
546 138 -139 0
-546 -138 -139 0
140 -139 0
-140 139 0
141 -140 0
-141 140 0
142 -141 0
-142 141 0
143 -142 0
-143 142 0
551 -143 144 0
-551 143 144 0
551 143 -144 0
-551 -143 -144 0
552 -144 145 0
-552 144 145 0
552 144 -145 0
-552 -144 -145 0
553 -145 146 0
-553 145 146 0
553 145 -146 0
-553 -145 -146 0
554 -146 147 0
-554 146 147 0
554 146 -147 0
-554 -146 -147 0
555 -147 148 0
-555 147 148 0
555 147 -148 0
-555 -147 -148 0
556 -148 149 0
-556 148 149 0
556 148 -149 0
-556 -148 -149 0
557 -149 150 0
-557 149 150 0
557 149 -150 0
-557 -149 -150 0
151 -150 0
-151 150 0
152 -151 0
-152 151 0
560 -152 153 0
-560 152 153 0
560 152 -153 0
-560 -152 -153 0
890 659 -666 0
-877 646 653 0
-545 155 0
545 -155 0
-898 -667 -674 0
546 -155 156 0
-546 155 156 0
546 155 -156 0
-546 -155 -156 0
547 -156 157 0
-547 156 157 0
547 156 -157 0
-547 -156 -157 0
158 -157 0
-158 157 0
159 -158 0
-159 158 0
160 -159 0
-160 159 0
161 -160 0
-161 160 0
162 -161 0
-162 161 0
163 -162 0
-163 162 0
164 -163 0
-164 163 0
165 -164 0
-165 164 0
166 -165 0
-166 165 0
167 -166 0
-167 166 0
558 -167 168 0
-558 167 168 0
558 167 -168 0
-558 -167 -168 0
559 -168 169 0
-559 168 169 0
559 168 -169 0
-559 -168 -169 0
170 -169 0
-170 169 0
939 -940 0
-940 -709 -716 0
940 709 -716 0
-940 709 716 0
-546 173 0
546 -173 0
898 667 -674 0
547 -173 174 0
-547 173 174 0
547 173 -174 0
-547 -173 -174 0
548 -174 175 0
-548 174 175 0
548 174 -175 0
-548 -174 -175 0
549 -175 176 0
-549 175 176 0
549 175 -176 0
-549 -175 -176 0
550 -176 177 0
-550 176 177 0
550 176 -177 0
-550 -176 -177 0
551 -177 178 0
-551 177 178 0
551 177 -178 0
-551 -177 -178 0
552 -178 179 0
-552 178 179 0
552 178 -179 0
-552 -178 -179 0
180 -179 0
-180 179 0
181 -180 0
-181 180 0
555 -181 182 0
-555 181 182 0
555 181 -182 0
-555 -181 -182 0
556 -182 183 0
-556 182 183 0
556 182 -183 0
-556 -182 -183 0
557 -183 184 0
-557 183 184 0
557 183 -184 0
-557 -183 -184 0
558 -184 185 0
-558 184 185 0
558 184 -185 0
-558 -184 -185 0
559 -185 186 0
-559 185 186 0
559 185 -186 0
-559 -185 -186 0
187 -186 0
-187 186 0
-722 729 954 0
-953 -722 954 0
722 -954 0
877 -646 653 0
-546 190 0
546 -190 0
-876 -645 -652 0
547 -190 191 0
-547 190 191 0
547 190 -191 0
-547 -190 -191 0
192 -191 0
-192 191 0
193 -192 0
-193 192 0
194 -193 0
-194 193 0
551 -194 195 0
-551 194 195 0
551 194 -195 0
-551 -194 -195 0
552 -195 196 0
-552 195 196 0
552 195 -196 0
-552 -195 -196 0
197 -196 0
-197 196 0
554 -197 198 0
-554 197 198 0
554 197 -198 0
-554 -197 -198 0
199 -198 0
-199 198 0
200 -199 0
-200 199 0
201 -200 0
-201 200 0
558 -201 202 0
-558 201 202 0
558 201 -202 0
-558 -201 -202 0
203 -202 0
-203 202 0
204 -203 0
-204 203 0
876 645 -652 0
340 -925 0
940 -709 716 0
546 207 0
-939 -708 -715 0
939 708 -715 0
-546 -207 0
208 -207 0
-208 207 0
209 -208 0
-209 208 0
549 -209 210 0
-549 209 210 0
549 209 -210 0
-549 -209 -210 0
211 -210 0
-211 210 0
551 -211 212 0
-551 211 212 0
551 211 -212 0
-551 -211 -212 0
213 -212 0
-213 212 0
214 -213 0
-214 213 0
215 -214 0
-215 214 0
216 -215 0
-216 215 0
556 -216 217 0
-556 216 217 0
556 216 -217 0
-556 -216 -217 0
218 -217 0
-218 217 0
558 -218 219 0
-558 218 219 0
558 218 -219 0
-558 -218 -219 0
220 -219 0
-220 219 0
221 -220 0
-221 220 0
-939 708 715 0
-772 779 0
-545 223 0
545 -223 0
-1003 -772 0
546 -223 224 0
-546 223 224 0
546 223 -224 0
-546 -223 -224 0
547 -224 225 0
-547 224 225 0
547 224 -225 0
-547 -224 -225 0
226 -225 0
-226 225 0
227 -226 0
-227 226 0
228 -227 0
-228 227 0
551 -228 229 0
-551 228 229 0
551 228 -229 0
-551 -228 -229 0
230 -229 0
-230 229 0
231 -230 0
-231 230 0
554 -231 232 0
-554 231 232 0
554 231 -232 0
-554 -231 -232 0
233 -232 0
-233 232 0
556 -233 234 0
-556 233 234 0
556 233 -234 0
-556 -233 -234 0
235 -234 0
-235 234 0
558 -235 236 0
-558 235 236 0
558 235 -236 0
-558 -235 -236 0
237 -236 0
-237 236 0
238 -237 0
-238 237 0
883 -652 659 0
-238 883 0
-340 925 0
-890 659 666 0
890 -659 666 0
547 242 0
-898 667 674 0
-771 778 1003 0
-547 -242 0
548 -242 243 0
-548 242 243 0
548 242 -243 0
-548 -242 -243 0
244 -243 0
-244 243 0
245 -244 0
-245 244 0
246 -245 0
-246 245 0
552 -246 247 0
-552 246 247 0
552 246 -247 0
-552 -246 -247 0
248 -247 0
-248 247 0
554 -248 249 0
-554 248 249 0
554 248 -249 0
-554 -248 -249 0
250 -249 0
-250 249 0
251 -250 0
-251 250 0
252 -251 0
-252 251 0
253 -252 0
-253 252 0
559 -253 254 0
-559 253 254 0
559 253 -254 0
-559 -253 -254 0
255 -254 0
-255 254 0
-1002 -771 1003 0
545 257 0
771 -1003 0
1002 -1003 0
-545 -257 0
546 -257 258 0
-546 257 258 0
546 257 -258 0
-546 -257 -258 0
259 -258 0
-259 258 0
260 -259 0
-260 259 0
549 -260 261 0
-549 260 261 0
549 260 -261 0
-549 -260 -261 0
262 -261 0
-262 261 0
263 -262 0
-263 262 0
264 -263 0
-264 263 0
265 -264 0
-265 264 0
554 -265 266 0
-554 265 266 0
554 265 -266 0
-554 -265 -266 0
267 -266 0
-267 266 0
556 -267 268 0
-556 267 268 0
556 267 -268 0
-556 -267 -268 0
269 -268 0
-269 268 0
270 -269 0
-270 269 0
559 -270 271 0
-559 270 271 0
559 270 -271 0
-559 -270 -271 0
272 -271 0
-272 271 0
-1003 -772 -779 0
1003 772 -779 0
-1003 772 779 0
1003 -772 779 0
-546 275 0
546 -275 0
-1002 -771 -778 0
547 -275 276 0
-547 275 276 0
547 275 -276 0
-547 -275 -276 0
548 -276 277 0
-548 276 277 0
548 276 -277 0
-548 -276 -277 0
549 -277 278 0
-549 277 278 0
549 277 -278 0
-549 -277 -278 0
550 -278 279 0
-550 278 279 0
550 278 -279 0
-550 -278 -279 0
280 -279 0
-280 279 0
281 -280 0
-281 280 0
282 -281 0
-282 281 0
283 -282 0
-283 282 0
555 -283 284 0
-555 283 284 0
555 283 -284 0
-555 -283 -284 0
285 -284 0
-285 284 0
557 -285 286 0
-557 285 286 0
557 285 -286 0
-557 -285 -286 0
287 -286 0
-287 286 0
288 -287 0
-288 287 0
289 -288 0
-289 288 0
1002 771 -778 0
-1002 771 778 0
1002 -771 778 0
-527 1002 0
-546 292 0
546 -292 0
527 -1002 0
293 -292 0
-293 292 0
548 -293 294 0
-548 293 294 0
548 293 -294 0
-548 -293 -294 0
549 -294 295 0
-549 294 295 0
549 294 -295 0
-549 -294 -295 0
550 -295 296 0
-550 295 296 0
550 295 -296 0
-550 -295 -296 0
551 -296 297 0
-551 296 297 0
551 296 -297 0
-551 -296 -297 0
552 -297 298 0
-552 297 298 0
552 297 -298 0
-552 -297 -298 0
299 -298 0
-299 298 0
300 -299 0
-300 299 0
301 -300 0
-301 300 0
302 -301 0
-302 301 0
303 -302 0
-303 302 0
304 -303 0
-304 303 0
559 -304 305 0
-559 304 305 0
559 304 -305 0
-559 -304 -305 0
306 -305 0
-306 305 0
953 -954 0
-954 -723 -730 0
954 723 -730 0
-954 723 730 0
939 -708 715 0
547 310 0
-374 939 0
374 -939 0
-547 -310 0
548 -310 311 0
-548 310 311 0
548 310 -311 0
-548 -310 -311 0
549 -311 312 0
-549 311 312 0
549 311 -312 0
-549 -311 -312 0
313 -312 0
-313 312 0
314 -313 0
-314 313 0
315 -314 0
-315 314 0
553 -315 316 0
-553 315 316 0
553 315 -316 0
-553 -315 -316 0
554 -316 317 0
-554 316 317 0
554 316 -317 0
-554 -316 -317 0
318 -317 0
-318 317 0
556 -318 319 0
-556 318 319 0
556 318 -319 0
-556 -318 -319 0
557 -319 320 0
-557 319 320 0
557 319 -320 0
-557 -319 -320 0
321 -320 0
-321 320 0
559 -321 322 0
-559 321 322 0
559 321 -322 0
-559 -321 -322 0
560 -322 323 0
-560 322 323 0
560 322 -323 0
-560 -322 -323 0
-255 890 0
954 -723 730 0
-545 325 0
545 -325 0
-953 -722 -729 0
326 -325 0
-326 325 0
547 -326 327 0
-547 326 327 0
547 326 -327 0
-547 -326 -327 0
548 -327 328 0
-548 327 328 0
548 327 -328 0
-548 -327 -328 0
549 -328 329 0
-549 328 329 0
549 328 -329 0
-549 -328 -329 0
550 -329 330 0
-550 329 330 0
550 329 -330 0
-550 -329 -330 0
331 -330 0
-331 330 0
332 -331 0
-332 331 0
333 -332 0
-333 332 0
554 -333 334 0
-554 333 334 0
554 333 -334 0
-554 -333 -334 0
555 -334 335 0
-555 334 335 0
555 334 -335 0
-555 -334 -335 0
556 -335 336 0
-556 335 336 0
556 335 -336 0
-556 -335 -336 0
557 -336 337 0
-557 336 337 0
557 336 -337 0
-557 -336 -337 0
338 -337 0
-338 337 0
339 -338 0
-339 338 0
340 -339 0
-340 339 0
953 722 -729 0
-953 722 729 0
898 -667 674 0
238 -883 0
-884 653 660 0
-674 681 0
255 -890 0
659 -891 0
425 -960 0
549 346 0
-425 960 0
-765 772 0
-549 -346 0
347 -346 0
-347 346 0
348 -347 0
-348 347 0
552 -348 349 0
-552 348 349 0
552 348 -349 0
-552 -348 -349 0
350 -349 0
-350 349 0
351 -350 0
-351 350 0
555 -351 352 0
-555 351 352 0
555 351 -352 0
-555 -351 -352 0
353 -352 0
-353 352 0
354 -353 0
-354 353 0
558 -354 355 0
-558 354 355 0
558 354 -355 0
-558 -354 -355 0
559 -355 356 0
-559 355 356 0
559 355 -356 0
-559 -355 -356 0
357 -356 0
-357 356 0
-996 -765 0
-905 -674 0
617 -849 0
848 617 -624 0
967 736 -743 0
-967 -736 -743 0
968 -737 744 0
-764 771 996 0
-995 -764 996 0
764 -996 0
995 -996 0
-996 -765 -772 0
996 765 -772 0
551 365 0
-996 765 772 0
996 -765 772 0
-551 -365 0
552 -365 366 0
-552 365 366 0
552 365 -366 0
-552 -365 -366 0
367 -366 0
-367 366 0
368 -367 0
-368 367 0
369 -368 0
-369 368 0
370 -369 0
-370 369 0
557 -370 371 0
-557 370 371 0
557 370 -371 0
-557 -370 -371 0
558 -371 372 0
-558 371 372 0
558 371 -372 0
-558 -371 -372 0
373 -372 0
-373 372 0
560 -373 374 0
-560 373 374 0
560 373 -374 0
-560 -373 -374 0
-995 -764 -771 0
995 764 -771 0
-995 764 771 0
546 377 0
995 -764 771 0
-510 995 0
-546 -377 0
547 -377 378 0
-547 377 378 0
547 377 -378 0
-547 -377 -378 0
379 -378 0
-379 378 0
549 -379 380 0
-549 379 380 0
549 379 -380 0
-549 -379 -380 0
381 -380 0
-381 380 0
551 -381 382 0
-551 381 382 0
551 381 -382 0
-551 -381 -382 0
383 -382 0
-383 382 0
384 -383 0
-384 383 0
554 -384 385 0
-554 384 385 0
554 384 -385 0
-554 -384 -385 0
555 -385 386 0
-555 385 386 0
555 385 -386 0
-555 -385 -386 0
556 -386 387 0
-556 386 387 0
556 386 -387 0
-556 -386 -387 0
557 -387 388 0
-557 387 388 0
557 387 -388 0
-557 -387 -388 0
389 -388 0
-389 388 0
559 -389 390 0
-559 389 390 0
559 389 -390 0
-559 -389 -390 0
560 -390 391 0
-560 390 391 0
560 390 -391 0
-560 -390 -391 0
510 -995 0
953 -722 729 0
-408 953 0
408 -953 0
-968 737 744 0
547 395 0
960 -729 736 0
-960 729 736 0
-547 -395 0
548 -395 396 0
-548 395 396 0
548 395 -396 0
-548 -395 -396 0
397 -396 0
-397 396 0
398 -397 0
-398 397 0
399 -398 0
-399 398 0
552 -399 400 0
-552 399 400 0
552 399 -400 0
-552 -399 -400 0
401 -400 0
-401 400 0
402 -401 0
-402 401 0
555 -402 403 0
-555 402 403 0
555 402 -403 0
-555 -402 -403 0
556 -403 404 0
-556 403 404 0
556 403 -404 0
-556 -403 -404 0
557 -404 405 0
-557 404 405 0
557 404 -405 0
-557 -404 -405 0
558 -405 406 0
-558 405 406 0
558 405 -406 0
-558 -405 -406 0
407 -406 0
-407 406 0
560 -407 408 0
-560 407 408 0
560 407 -408 0
-560 -407 -408 0
-890 -659 891 0
-659 666 891 0
-545 410 0
545 -410 0
-876 645 652 0
411 -410 0
-411 410 0
547 -411 412 0
-547 411 412 0
547 411 -412 0
-547 -411 -412 0
548 -412 413 0
-548 412 413 0
548 412 -413 0
-548 -412 -413 0
414 -413 0
-414 413 0
550 -414 415 0
-550 414 415 0
550 414 -415 0
-550 -414 -415 0
416 -415 0
-416 415 0
552 -416 417 0
-552 416 417 0
552 416 -417 0
-552 -416 -417 0
553 -417 418 0
-553 417 418 0
553 417 -418 0
-553 -417 -418 0
419 -418 0
-419 418 0
555 -419 420 0
-555 419 420 0
555 419 -420 0
-555 -419 -420 0
556 -420 421 0
-556 420 421 0
556 420 -421 0
-556 -420 -421 0
422 -421 0
-422 421 0
558 -422 423 0
-558 422 423 0
558 422 -423 0
-558 -422 -423 0
424 -423 0
-424 423 0
425 -424 0
-425 424 0
876 -645 652 0
-897 -666 -673 0
-545 427 0
545 -427 0
-221 876 0
428 -427 0
-428 427 0
429 -428 0
-429 428 0
548 -429 430 0
-548 429 430 0
548 429 -430 0
-548 -429 -430 0
431 -430 0
-431 430 0
550 -431 432 0
-550 431 432 0
550 431 -432 0
-550 -431 -432 0
551 -432 433 0
-551 432 433 0
551 432 -433 0
-551 -432 -433 0
552 -433 434 0
-552 433 434 0
552 433 -434 0
-552 -433 -434 0
553 -434 435 0
-553 434 435 0
553 434 -435 0
-553 -434 -435 0
554 -435 436 0
-554 435 436 0
554 435 -436 0
-554 -435 -436 0
437 -436 0
-437 436 0
438 -437 0
-438 437 0
439 -438 0
-439 438 0
558 -439 440 0
-558 439 440 0
558 439 -440 0
-558 -439 -440 0
559 -440 441 0
-559 440 441 0
559 440 -441 0
-559 -440 -441 0
560 -441 442 0
-560 441 442 0
560 441 -442 0
-560 -441 -442 0
442 -967 0
545 444 0
-442 967 0
-688 695 0
-545 -444 0
445 -444 0
-445 444 0
446 -445 0
-446 445 0
447 -446 0
-447 446 0
549 -447 448 0
-549 447 448 0
549 447 -448 0
-549 -447 -448 0
550 -448 449 0
-550 448 449 0
550 448 -449 0
-550 -448 -449 0
450 -449 0
-450 449 0
552 -450 451 0
-552 450 451 0
552 450 -451 0
-552 -450 -451 0
452 -451 0
-452 451 0
554 -452 453 0
-554 452 453 0
554 452 -453 0
-554 -452 -453 0
454 -453 0
-454 453 0
455 -454 0
-455 454 0
557 -455 456 0
-557 455 456 0
557 455 -456 0
-557 -455 -456 0
558 -456 457 0
-558 456 457 0
558 456 -457 0
-558 -456 -457 0
559 -457 458 0
-559 457 458 0
559 457 -458 0
-559 -457 -458 0
560 -458 459 0
-560 458 459 0
560 458 -459 0
-560 -458 -459 0
-919 -688 0
221 -876 0
877 646 -653 0
-940 -709 0
-709 716 0
-758 765 0
-547 463 0
547 -463 0
-989 -758 0
548 -463 464 0
-548 463 464 0
548 463 -464 0
-548 -463 -464 0
465 -464 0
-465 464 0
550 -465 466 0
-550 465 466 0
550 465 -466 0
-550 -465 -466 0
551 -466 467 0
-551 466 467 0
551 466 -467 0
-551 -466 -467 0
468 -467 0
-468 467 0
553 -468 469 0
-553 468 469 0
553 468 -469 0
-553 -468 -469 0
470 -469 0
-470 469 0
471 -470 0
-471 470 0
472 -471 0
-472 471 0
473 -472 0
-473 472 0
474 -473 0
-474 473 0
475 -474 0
-475 474 0
560 -475 476 0
-560 475 476 0
560 475 -476 0
-560 -475 -476 0
967 -968 0
-673 680 905 0
968 737 -744 0
-968 -737 -744 0
736 -968 0
-967 -736 968 0
-757 764 989 0
548 481 0
-988 -757 989 0
757 -989 0
-548 -481 0
549 -481 482 0
-549 481 482 0
549 481 -482 0
-549 -481 -482 0
550 -482 483 0
-550 482 483 0
550 482 -483 0
-550 -482 -483 0
484 -483 0
-484 483 0
485 -484 0
-485 484 0
553 -485 486 0
-553 485 486 0
553 485 -486 0
-553 -485 -486 0
554 -486 487 0
-554 486 487 0
554 486 -487 0
-554 -486 -487 0
555 -487 488 0
-555 487 488 0
555 487 -488 0
-555 -487 -488 0
556 -488 489 0
-556 488 489 0
556 488 -489 0
-556 -488 -489 0
490 -489 0
-490 489 0
491 -490 0
-491 490 0
492 -491 0
-492 491 0
560 -492 493 0
-560 492 493 0
560 492 -493 0
-560 -492 -493 0
988 -989 0
-989 -758 -765 0
989 758 -765 0
-989 758 765 0
-546 496 0
546 -496 0
989 -758 765 0
547 -496 497 0
-547 496 497 0
547 496 -497 0
-547 -496 -497 0
548 -497 498 0
-548 497 498 0
548 497 -498 0
-548 -497 -498 0
499 -498 0
-499 498 0
500 -499 0
-500 499 0
551 -500 501 0
-551 500 501 0
551 500 -501 0
-551 -500 -501 0
502 -501 0
-502 501 0
553 -502 503 0
-553 502 503 0
553 502 -503 0
-553 -502 -503 0
504 -503 0
-504 503 0
555 -504 505 0
-555 504 505 0
555 504 -505 0
-555 -504 -505 0
506 -505 0
-506 505 0
557 -506 507 0
-557 506 507 0
557 506 -507 0
-557 -506 -507 0
558 -507 508 0
-558 507 508 0
558 507 -508 0
-558 -507 -508 0
559 -508 509 0
-559 508 509 0
559 508 -509 0
-559 -508 -509 0
510 -509 0
-510 509 0
-988 -757 -764 0
988 757 -764 0
-988 757 764 0
988 -757 764 0
-493 988 0
547 514 0
493 -988 0
897 666 -673 0
-547 -514 0
548 -514 515 0
-548 514 515 0
548 514 -515 0
-548 -514 -515 0
549 -515 516 0
-549 515 516 0
549 515 -516 0
-549 -515 -516 0
517 -516 0
-517 516 0
551 -517 518 0
-551 517 518 0
551 517 -518 0
-551 -517 -518 0
519 -518 0
-519 518 0
553 -519 520 0
-553 519 520 0
553 519 -520 0
-553 -519 -520 0
554 -520 521 0
-554 520 521 0
554 520 -521 0
-554 -520 -521 0
522 -521 0
-522 521 0
556 -522 523 0
-556 522 523 0
556 522 -523 0
-556 -522 -523 0
557 -523 524 0
-557 523 524 0
557 523 -524 0
-557 -523 -524 0
558 -524 525 0
-558 524 525 0
558 524 -525 0
-558 -524 -525 0
526 -525 0
-526 525 0
560 -526 527 0
-560 526 527 0
560 526 -527 0
-560 -526 -527 0
-897 666 673 0
545 529 0
-904 -673 905 0
673 -905 0
-545 -529 0
546 -529 530 0
-546 529 530 0
546 529 -530 0
-546 -529 -530 0
531 -530 0
-531 530 0
532 -531 0
-532 531 0
549 -532 533 0
-549 532 533 0
549 532 -533 0
-549 -532 -533 0
534 -533 0
-534 533 0
551 -534 535 0
-551 534 535 0
551 534 -535 0
-551 -534 -535 0
552 -535 536 0
-552 535 536 0
552 535 -536 0
-552 -535 -536 0
537 -536 0
-537 536 0
554 -537 538 0
-554 537 538 0
554 537 -538 0
-554 -537 -538 0
555 -538 539 0
-555 538 539 0
555 538 -539 0
-555 -538 -539 0
540 -539 0
-540 539 0
557 -540 541 0
-557 540 541 0
557 540 -541 0
-557 -540 -541 0
558 -541 542 0
-558 541 542 0
558 541 -542 0
-558 -541 -542 0
543 -542 0
-543 542 0
544 -543 0
-544 543 0
-687 694 919 0
-918 -687 919 0
687 -919 0
918 -919 0
967 -736 743 0
-967 736 743 0
-736 743 968 0
17 -792 0
-17 792 0
925 -694 701 0
-792 568 0
792 -568 0
-919 -688 -695 0
919 688 -695 0
904 -905 0
-905 -674 -681 0
-919 688 695 0
919 -688 695 0
-918 -687 -694 0
897 -666 673 0
-272 897 0
272 -897 0
918 687 -694 0
-897 -666 898 0
-702 709 0
-751 758 0
-982 -751 0
905 674 -681 0
-905 674 681 0
-918 687 694 0
-933 -702 0
884 653 -660 0
918 -687 694 0
-323 918 0
323 -918 0
-750 757 982 0
-981 -750 982 0
750 -982 0
-884 -653 -660 0
926 -695 702 0
981 -982 0
-982 -751 -758 0
982 751 -758 0
-982 751 758 0
982 -751 758 0
-981 -750 -757 0
-926 695 702 0
926 695 -702 0
981 750 -757 0
-981 750 757 0
981 -750 757 0
-476 981 0
476 -981 0
-926 -695 -702 0
905 -674 681 0
-904 -673 -680 0
904 673 -680 0
862 -631 638 0
-187 862 0
-625 632 0
-856 -625 0
34 -799 0
-34 799 0
799 -568 575 0
-799 568 575 0
799 568 -575 0
-799 -568 -575 0
-904 673 680 0
-800 576 0
800 -576 0
-716 723 0
799 -800 0
568 -800 0
-799 -568 800 0
-568 575 800 0
-947 -716 0
-701 708 933 0
-932 -701 933 0
-848 -617 849 0
701 -933 0
856 -625 632 0
904 -673 680 0
-289 904 0
306 -911 0
932 -933 0
-933 -702 -709 0
-848 617 624 0
-715 722 947 0
-946 -715 947 0
715 -947 0
946 -947 0
-947 -716 -723 0
933 702 -709 0
-933 702 709 0
947 716 -723 0
-947 716 723 0
947 -716 723 0
-946 -715 -722 0
946 715 -722 0
-946 715 722 0
933 -702 709 0
-932 -701 -708 0
946 -715 722 0
-391 946 0
391 -946 0
932 701 -708 0
-932 701 708 0
289 -904 0
-638 645 870 0
932 -701 708 0
-357 932 0
-869 -638 870 0
-925 -694 -701 0
357 -932 0
960 729 -736 0
51 -806 0
-51 806 0
806 -575 582 0
-806 575 582 0
806 575 -582 0
-806 -575 -582 0
807 -576 583 0
-807 576 583 0
807 576 -583 0
-807 -576 -583 0
806 -807 0
575 -807 0
-806 -575 807 0
-575 582 807 0
-960 -729 -736 0
-835 604 611 0
835 -604 611 0
961 -730 737 0
-834 -603 -610 0
834 603 -610 0
-807 -576 0
-576 583 0
-961 730 737 0
638 -870 0
-961 -730 0
961 730 -737 0
-730 737 0
-961 -730 -737 0
848 -617 624 0
-153 848 0
-666 673 898 0
869 -870 0
187 -862 0
-862 631 638 0
-870 -639 -646 0
870 639 -646 0
-877 -646 -653 0
925 694 -701 0
862 631 -638 0
876 -877 0
-925 694 701 0
925 -926 0
694 -926 0
-631 638 863 0
-870 639 646 0
870 -639 646 0
-925 -694 926 0
-869 -638 -645 0
-653 660 0
-884 -653 0
-694 701 926 0
869 638 -645 0
-869 638 645 0
869 -638 645 0
68 -813 0
-68 813 0
813 -582 589 0
-813 582 589 0
813 582 -589 0
-813 -582 -589 0
814 -583 590 0
-814 583 590 0
814 583 -590 0
-814 -583 -590 0
813 -814 0
582 -814 0
-813 -582 814 0
-582 589 814 0
-834 603 610 0
834 -603 610 0
136 -841 0
855 624 -631 0
-119 834 0
119 -834 0
-814 -583 0
-583 590 0
-204 869 0
-618 625 0
-170 855 0
-862 -631 863 0
170 -855 0
-136 841 0
652 -884 0
-603 610 835 0
-911 680 687 0
204 -869 0
153 -848 0
-306 911 0
-652 659 884 0
883 -884 0
-624 631 856 0
-681 688 0
-912 -681 0
-646 653 0
-855 -624 856 0
-632 639 0
-863 -632 0
-877 -646 0
624 -856 0
855 -856 0
-744 751 0
-975 -744 0
911 -680 687 0
-870 -639 0
912 -681 688 0
-680 687 912 0
-911 -680 912 0
680 -912 0
85 -820 0
-85 820 0
820 -589 596 0
-820 589 596 0
820 589 -596 0
-820 -589 -596 0
821 -590 597 0
-821 590 597 0
821 590 -597 0
-821 -590 -597 0
820 -821 0
589 -821 0
-820 -589 821 0
-589 596 821 0
-834 -603 835 0
603 -835 0
-849 -618 0
841 -610 617 0
834 -835 0
-835 -604 -611 0
-821 -590 0
-590 597 0
-841 610 617 0
631 -863 0
-968 -737 0
459 -974 0
-848 -617 -624 0
841 610 -617 0
835 604 -611 0
-841 -610 -617 0
911 680 -687 0
-611 618 0
-842 -611 0
-862 -631 -638 0
-459 974 0
974 -743 750 0
-604 611 0
-974 743 750 0
645 -877 0
863 -632 639 0
-660 667 0
-863 632 639 0
-891 -660 0
863 632 -639 0
-645 652 877 0
-667 674 0
911 -912 0
-912 -681 -688 0
-743 750 975 0
-974 -743 975 0
743 -975 0
974 -975 0
-898 -667 0
-639 646 0
102 -827 0
-102 827 0
827 -596 603 0
-827 596 603 0
827 596 -603 0
-827 -596 -603 0
828 -597 604 0
-828 597 604 0
828 597 -604 0
-828 -597 -604 0
827 -828 0
596 -828 0
-827 -596 828 0
-596 603 828 0
-835 -604 0
855 -624 631 0
-855 -624 -631 0
849 618 -625 0
-855 624 631 0
842 -611 618 0
-828 -597 0
-597 604 0
-849 618 625 0
849 -618 625 0
848 -849 0
-849 -618 -625 0
856 625 -632 0
-856 -625 -632 0
-842 611 618 0
-617 624 849 0
-610 617 842 0
-841 -610 842 0
-876 -645 877 0
-926 -695 0
610 -842 0
841 -842 0
-856 625 632 0
-842 -611 -618 0
-737 744 0
-695 702 0
-912 681 688 0
-863 -632 -639 0
912 681 -688 0
-883 -652 884 0
842 611 -618 0
-911 -680 -687 0
-975 -744 -751 0
975 744 -751 0
-975 744 751 0
975 -744 751 0
-974 -743 -750 0
974 743 -750 0
862 -863 0
